interdiction/MCDM/NO_CORR/GEN_FROM_60/18_ITEMS_1000_GEN/K5018W13.KNP.mps
NAME          BLANK   
ROWS
 N  OBJROW
 L  R0000000
COLUMNS
    C0000000  OBJROW     -961.         R0000000  910.        
    C0000001  OBJROW     -924.         R0000000  665.        
    C0000002  OBJROW     -604.         R0000000  98.         
    C0000003  OBJROW     -102.         R0000000  503.        
    C0000004  OBJROW     -381.         R0000000  429.        
    C0000005  OBJROW     -910.         R0000000  134.        
    C0000006  OBJROW     -621.         R0000000  707.        
    C0000007  OBJROW     -955.         R0000000  132.        
    C0000008  OBJROW     -276.         R0000000  626.        
    C0000009  OBJROW     -237.         R0000000  250.        
    C0000010  OBJROW     -766.         R0000000  249.        
    C0000011  OBJROW     -975.         R0000000  124.        
    C0000012  OBJROW     -610.         R0000000  831.        
    C0000013  OBJROW     -530.         R0000000  432.        
    C0000014  OBJROW     -697.         R0000000  51.         
    C0000015  OBJROW     -176.         R0000000  232.        
    C0000016  OBJROW     -947.         R0000000  537.        
    C0000017  OBJROW     -942.         R0000000  829.        
RHS
    RHS       R0000000  14228.      
BOUNDS
 BV BOUND     C0000000  1.          
 BV BOUND     C0000001  1.          
 BV BOUND     C0000002  1.          
 BV BOUND     C0000003  1.          
 BV BOUND     C0000004  1.          
 BV BOUND     C0000005  1.          
 BV BOUND     C0000006  1.          
 BV BOUND     C0000007  1.          
 BV BOUND     C0000008  1.          
 BV BOUND     C0000009  1.          
 BV BOUND     C0000010  1.          
 BV BOUND     C0000011  1.          
 BV BOUND     C0000012  1.          
 BV BOUND     C0000013  1.          
 BV BOUND     C0000014  1.          
 BV BOUND     C0000015  1.          
 BV BOUND     C0000016  1.          
 BV BOUND     C0000017  1.          
ENDATA
